c FILE: myciel3.col
c SOURCE: Michael Trick (trick@cmu.edu)
c DESCRIPTION: Graph based on Mycielski transformation.
c Triangle free (clique number 2) but increasing.
c coloring number
p edge 8 12
e 1 3
e 1 5
e 1 7
e 3 8
e 3 6
e 8 5
e 8 2
e 5 4
e 2 4
e 2 6
e 4 7
e 6 7
